NAME: tsp5_14
COMMENT: 5-tsp problem (Padberg/Rinaldi)
TYPE: TSP
DIMENSION: 5
EDGE_WEIGHT_TYPE : EUC_2D
NODE_COORD_SECTION
1.00 6.05 13.87
2.00 25.23 3.95
3.00 4.14 36.94
4.00 1.02 29.93
5.00 37.64 38.34
